27 28
21
3 3 3 4
3 4 10 4
3 5 6 0
3 6 3 19
7 3 0 25
3 8 14 17
3 9 0 16
3 10 10 8
3 11 3 8
3 12 0 4
19 3 8 25
3 20 20 4
3 21 17 4
4 3 13 0
4 4 9 0
6 4 0 0
4 7 10 18
8 4 19 0
4 14 13 3
4 19 6 5
4 20 23 5
